20 10
63 37 21 413 9 21 132 26 12 9
12 33 71 29 19 45 77 40 56 86
9 155 62 15 81 1 13 109 91 23
7 71 47 100 135 13 141 225 16 16
136 1 5 8 6 31 89 10 68 103
71 121 28 6 73 12 53 16 3 25
47 48 42 27 121 11 2 67 118 70
39 73 35 22 44 46 11 19 67 58
35 42 36 32 6 28 48 35 284 39
61 30 52 191 129 20 16 4 4 1
20 10 55 3 55 29 1 106 79 29
8 15 42 71 80 29 8 63 8 69
35 40 71 102 3 41 76 20 79 134
44 93 173 27 32 212 39 59 15 19
49 6 23 67 10 27 78 17 48 34
145 77 17 57 88 76 53 11 40 83
67 23 9 86 56 58 25 21 3 3
43 89 6 251 57 215 8 26 31 31
50 74 1 46 12 62 98 26 46 29
5 89 9 29 6 14 196 14 20 221
